3 100 1788
10 7 7 9 3 5 6 6 14 5
3 3 4
4 3 7
2 5 9
7 4 4 5
0 40.0 50.0 0.0 0.0 0 240
2 25.0 85.0 10.0 20.0 125 191 93 0 0 0 1 0 0 1 0 0 0
3 22.0 75.0 10.0 30.0 32 97 87 0 0 0 0 0 1 0 0 0 0
4 22.0 85.0 10.0 10.0 101 146 23 0 0 0 0 0 0 1 0 0 0
5 20.0 80.0 10.0 40.0 71 193 89 1 1 0 1 0 0 0 0 0 0
6 20.0 85.0 10.0 20.0 40 113 26 0 0 0 0 0 0 0 1 0 0
7 18.0 75.0 10.0 20.0 55 164 81 1 0 0 0 0 0 0 0 1 1
8 15.0 75.0 10.0 20.0 69 118 24 1 0 0 0 0 1 1 0 1 1
9 15.0 80.0 10.0 10.0 56 155 20 0 0 0 0 0 1 0 0 0 0
10 10.0 35.0 10.0 20.0 51 160 92 0 0 0 0 0 1 0 0 0 0
11 10.0 40.0 10.0 30.0 90 177 6 0 1 0 0 0 0 0 0 0 0
12 8.0 40.0 10.0 40.0 33 152 98 0 0 0 0 0 1 0 0 1 0
13 8.0 45.0 10.0 20.0 49 108 35 0 0 0 1 1 0 1 1 1 0
14 5.0 35.0 10.0 10.0 62 191 62 0 0 0 0 0 1 0 0 0 0
15 5.0 45.0 10.0 10.0 35 117 79 0 0 1 0 1 1 0 0 0 1
16 2.0 40.0 10.0 20.0 39 161 96 1 0 0 0 0 0 0 0 0 0
17 0.0 40.0 10.0 20.0 59 114 88 0 1 0 0 0 0 0 0 0 1
18 0.0 45.0 10.0 20.0 60 189 34 0 1 0 0 0 0 1 0 0 0
19 44.0 5.0 10.0 20.0 79 124 58 1 0 0 0 1 1 0 0 0 1
20 42.0 10.0 10.0 40.0 58 115 76 0 0 0 0 0 0 0 0 0 1
21 42.0 15.0 10.0 10.0 111 162 12 1 0 0 0 0 0 0 0 1 1
22 40.0 5.0 10.0 10.0 52 111 26 1 1 1 0 0 0 0 0 0 0
23 40.0 15.0 10.0 40.0 55 158 24 0 0 1 0 0 0 1 0 1 0
24 38.0 5.0 10.0 30.0 45 164 30 0 0 0 0 0 0 0 0 1 0
25 38.0 15.0 10.0 10.0 128 194 96 1 0 0 0 1 0 0 0 0 1
26 35.0 5.0 10.0 20.0 54 184 4 0 0 0 0 0 0 0 0 1 0
27 95.0 30.0 10.0 30.0 105 154 85 0 0 0 0 0 0 0 0 0 1
28 95.0 35.0 10.0 20.0 57 172 8 0 0 0 0 0 1 0 0 0 0
29 92.0 30.0 10.0 10.0 55 120 4 1 0 0 1 0 0 0 1 0 0
30 90.0 35.0 10.0 10.0 52 112 72 0 0 0 0 1 0 0 0 1 0
31 88.0 30.0 10.0 10.0 52 159 84 0 0 0 0 0 1 0 0 1 0
32 88.0 35.0 10.0 20.0 50 110 68 1 0 1 1 0 0 0 0 1 0
33 87.0 30.0 10.0 10.0 116 175 21 0 0 1 1 0 0 0 0 0 1
34 85.0 25.0 10.0 10.0 51 178 11 0 0 1 0 0 1 0 1 0 0
35 85.0 35.0 10.0 30.0 100 151 54 0 0 0 0 1 0 0 0 0 0
36 67.0 85.0 10.0 20.0 61 185 59 0 0 0 0 0 0 0 0 1 0
37 65.0 85.0 10.0 40.0 43 186 33 0 0 1 0 0 0 0 0 0 0
38 65.0 82.0 10.0 10.0 113 164 45 0 0 1 0 0 0 0 0 0 0
39 62.0 80.0 10.0 30.0 37 148 94 1 1 0 1 0 1 0 0 1 0
40 60.0 80.0 10.0 10.0 36 191 70 1 0 0 1 0 0 0 0 0 0
41 60.0 85.0 10.0 30.0 50 149 86 1 0 0 0 0 0 0 0 0 1
42 58.0 75.0 10.0 20.0 48 165 73 0 0 1 1 0 0 1 1 1 0
43 55.0 80.0 10.0 10.0 33 166 47 0 0 0 1 0 0 0 1 0 0
44 55.0 85.0 10.0 20.0 117 168 63 0 0 0 1 0 0 1 1 1 1
45 55.0 82.0 10.0 10.0 35 148 91 0 0 0 1 0 0 1 0 0 1
46 20.0 82.0 10.0 10.0 37 177 79 1 0 1 0 1 0 0 1 0 1
47 18.0 80.0 10.0 10.0 98 157 58 0 0 0 0 0 1 0 0 0 0
48 2.0 45.0 10.0 10.0 38 109 87 0 0 0 1 0 1 0 0 0 0
49 42.0 5.0 10.0 10.0 120 184 95 0 0 0 0 1 1 0 1 0 0
50 42.0 12.0 10.0 10.0 79 158 80 0 0 0 0 0 1 0 0 0 0
51 72.0 35.0 10.0 30.0 104 157 58 0 0 0 0 0 0 1 0 0 0
52 55.0 20.0 10.0 19.0 69 126 14 0 0 0 0 0 0 1 0 0 0
53 25.0 30.0 10.0 3.0 36 97 92 1 0 0 1 1 1 0 0 0 1
54 20.0 50.0 10.0 5.0 57 154 49 0 0 0 0 0 1 0 0 0 0
55 55.0 60.0 10.0 16.0 127 180 65 0 0 1 0 1 0 0 0 0 0
56 30.0 60.0 10.0 16.0 95 214 13 1 0 0 0 1 0 0 1 0 0
57 50.0 35.0 10.0 19.0 88 201 87 0 0 0 0 0 1 0 0 1 0
58 30.0 25.0 10.0 23.0 82 139 52 0 0 0 0 1 0 0 1 1 0
59 15.0 10.0 10.0 20.0 56 182 30 1 1 0 0 0 0 0 0 0 1
60 10.0 20.0 10.0 19.0 42 125 91 0 0 0 0 0 1 0 0 0 0
61 15.0 60.0 10.0 17.0 137 202 35 0 1 0 1 0 0 0 1 1 0
62 45.0 65.0 10.0 9.0 55 106 75 0 0 0 0 0 0 0 1 0 0
63 65.0 35.0 10.0 3.0 29 158 78 0 0 0 0 0 0 1 0 0 0
64 65.0 20.0 10.0 6.0 39 108 32 1 0 0 1 0 1 0 0 1 0
65 45.0 30.0 10.0 17.0 20 139 12 0 0 1 0 0 0 0 1 0 0
66 35.0 40.0 10.0 16.0 11 140 73 0 0 0 0 0 1 0 0 0 0
67 41.0 37.0 10.0 16.0 92 203 33 0 1 0 0 0 0 0 0 0 0
68 64.0 42.0 10.0 9.0 28 141 64 0 0 0 0 0 0 0 1 1 0
69 40.0 60.0 10.0 21.0 100 217 63 0 0 0 0 0 1 0 0 0 0
70 31.0 52.0 10.0 27.0 9 134 44 0 0 0 0 0 1 0 0 0 0
71 35.0 69.0 10.0 23.0 60 210 37 0 1 1 1 0 0 0 0 1 0
72 65.0 55.0 10.0 14.0 52 107 31 0 0 1 0 0 1 0 0 1 0
73 63.0 65.0 10.0 8.0 27 101 68 0 0 0 0 0 0 0 0 1 0
74 2.0 60.0 10.0 5.0 65 118 1 0 0 0 0 1 1 1 0 0 1
75 20.0 20.0 10.0 8.0 72 193 89 0 0 0 1 0 1 0 0 0 0
76 5.0 5.0 10.0 16.0 60 117 46 0 0 0 1 0 0 0 0 0 0
77 60.0 12.0 10.0 31.0 42 143 83 0 1 0 1 0 0 1 0 1 0
78 23.0 3.0 10.0 7.0 52 180 83 0 1 0 0 0 0 1 0 0 0
79 8.0 56.0 10.0 27.0 46 163 16 1 0 0 0 0 0 0 0 0 1
80 6.0 68.0 10.0 30.0 54 153 49 1 1 0 0 0 1 0 1 0 0
81 47.0 47.0 10.0 13.0 97 222 83 0 1 1 0 0 0 1 0 0 1
82 49.0 58.0 10.0 10.0 80 121 62 0 0 0 0 0 1 0 0 0 0
83 27.0 43.0 10.0 9.0 26 87 32 0 0 0 1 0 0 0 0 1 0
84 37.0 31.0 10.0 14.0 19 87 56 0 0 0 0 0 0 0 1 0 0
85 57.0 29.0 10.0 18.0 62 159 17 0 1 0 0 0 0 0 0 1 1
86 63.0 23.0 10.0 2.0 76 127 84 1 0 0 0 0 1 0 1 0 0
87 21.0 24.0 10.0 28.0 77 126 92 0 1 0 0 1 0 0 0 0 0
88 12.0 24.0 10.0 13.0 68 141 33 1 1 1 0 0 1 0 0 0 0
89 24.0 58.0 10.0 19.0 24 139 89 0 0 0 0 0 1 0 0 0 0
90 67.0 5.0 10.0 25.0 105 177 22 1 1 0 0 0 1 0 0 0 0
91 37.0 47.0 10.0 6.0 74 127 58 1 0 0 0 0 0 1 0 0 0
92 49.0 42.0 10.0 13.0 151 212 36 0 0 0 0 0 0 0 0 1 0
93 53.0 43.0 10.0 14.0 14 155 64 0 0 1 0 1 0 1 0 1 0
94 61.0 52.0 10.0 3.0 69 208 41 0 0 0 0 0 1 0 0 0 0
95 57.0 48.0 10.0 23.0 86 133 77 1 1 1 1 0 0 0 0 1 0
96 56.0 37.0 10.0 6.0 20 84 5 1 0 0 0 1 1 0 0 1 0
97 55.0 54.0 10.0 26.0 121 172 79 1 0 0 0 0 0 0 0 1 0
98 4.0 18.0 10.0 35.0 112 157 21 0 0 0 0 0 1 0 0 0 0
99 26.0 52.0 10.0 9.0 30 91 67 0 0 0 0 0 1 0 0 0 0
100 26.0 35.0 10.0 15.0 37 146 39 1 0 0 0 0 0 0 0 0 0
101 31.0 67.0 10.0 3.0 66 210 11 1 0 0 0 1 0 0 0 0 1